70
    1     9     9
    2     5     5
    3    21    15
    4    38    42
    5    42    45
    6    66    69
    7    53    52
    8    16    11
    9    28    24
   10    47    43
   11    30    23
   12    74    70
   13    54    51
   14    39    43
   15    76    70
   16    53    56
   17    27    28
   18    14     9
   19    33    26
   20    53    59
   21    53    52
   22    63    67
   23    24    19
   24    46    40
   25    20    20
   26     9    13
   27    54    61
   28    54    49
   29    28    25
   30    12    18
   31    50    49
   32    65    59
   33    42    47
   34    39    44
   35    16    21
   36    15    10
   37     1     5
   38    36    32
   39    27    23
   40    13    18
   41    37    40
   42    43    47
   43    15    11
   44    58    65
   45    13    16
   46     6    12
   47    67    61
   48    29    23
   49    62    62
   50    56    49
   51    62    62
   52     6    11
   53    58    60
   54     7    11
   55     1     4
   56    31    27
   57    45    44
   58     9     2
   59    48    41
   60    16    19
   61    35    28
   62    37    34
   63    21    15
   64     2     6
   65    31    25
   66    33    35
   67    66    60
   68    44    38
   69    54    55
   70    53    59
71
